NAME: tsp20_5
COMMENT: 20-tsp problem (Padberg/Rinaldi)
TYPE: TSP
DIMENSION: 20
EDGE_WEIGHT_TYPE : EUC_2D
NODE_COORD_SECTION
1 11 9
2 17 7
3 3 5
4 21 28
5 15 17
6 18 20
7 37 15
8 2 4
9 5 15
10 21 34
11 11 4
12 14 26
13 27 29
14 30 11
15 9 6
16 13 36
17 39 37
18 24 17
19 21 3
20 8 18
